c "random instance"
p edges 150 1100
e 1 10
e 1 11
e 1 19
e 1 28
e 1 32
e 1 44
e 1 67
e 1 79
e 1 112
e 1 114
e 1 146
e 2 4
e 2 29
e 2 39
e 2 58
e 2 62
e 2 90
e 2 93
e 2 105
e 2 112
e 2 119
e 2 123
e 2 134
e 2 140
e 2 142
e 3 14
e 3 15
e 3 40
e 3 48
e 3 60
e 3 65
e 3 77
e 3 85
e 3 86
e 3 94
e 3 99
e 3 105
e 3 110
e 3 148
e 4 8
e 4 13
e 4 34
e 4 53
e 4 54
e 4 80
e 4 81
e 4 90
e 4 91
e 4 101
e 4 115
e 4 125
e 4 140
e 5 12
e 5 19
e 5 21
e 5 62
e 5 68
e 5 74
e 5 82
e 5 106
e 5 129
e 5 139
e 5 145
e 6 13
e 6 15
e 6 19
e 6 40
e 6 43
e 6 45
e 6 63
e 6 80
e 6 92
e 6 103
e 6 105
e 6 116
e 6 124
e 6 133
e 6 143
e 7 9
e 7 17
e 7 34
e 7 38
e 7 48
e 7 57
e 7 63
e 7 69
e 7 70
e 7 73
e 7 92
e 7 106
e 7 115
e 7 125
e 7 138
e 7 141
e 8 16
e 8 42
e 8 52
e 8 69
e 8 84
e 8 93
e 8 96
e 8 98
e 8 134
e 8 135
e 8 140
e 9 15
e 9 18
e 9 32
e 9 33
e 9 66
e 9 102
e 9 121
e 9 130
e 10 33
e 10 48
e 10 54
e 10 56
e 10 108
e 10 110
e 10 114
e 10 131
e 11 31
e 11 32
e 11 33
e 11 49
e 11 50
e 11 68
e 11 80
e 11 83
e 11 92
e 11 113
e 11 116
e 11 132
e 11 135
e 11 143
e 12 27
e 12 58
e 12 67
e 12 92
e 12 98
e 13 19
e 13 24
e 13 26
e 13 28
e 13 31
e 13 39
e 13 68
e 13 92
e 13 102
e 13 133
e 13 137
e 13 138
e 14 20
e 14 21
e 14 40
e 14 55
e 14 74
e 14 80
e 14 96
e 14 110
e 14 113
e 14 123
e 14 135
e 14 137
e 14 139
e 14 140
e 15 32
e 15 41
e 15 45
e 15 58
e 15 66
e 15 94
e 15 119
e 15 131
e 15 139
e 16 21
e 16 44
e 16 45
e 16 47
e 16 56
e 16 69
e 16 77
e 16 78
e 16 85
e 16 88
e 16 98
e 16 101
e 16 136
e 16 145
e 17 18
e 17 19
e 17 23
e 17 36
e 17 46
e 17 72
e 17 93
e 17 96
e 17 101
e 17 117
e 17 126
e 17 130
e 17 142
e 17 148
e 18 21
e 18 37
e 18 39
e 18 44
e 18 50
e 18 59
e 18 60
e 18 82
e 18 88
e 18 92
e 18 101
e 18 113
e 18 117
e 18 118
e 19 26
e 19 33
e 19 54
e 19 79
e 19 83
e 19 99
e 19 100
e 19 112
e 19 123
e 19 130
e 19 139
e 19 144
e 20 26
e 20 32
e 20 34
e 20 36
e 20 40
e 20 51
e 20 52
e 20 53
e 20 72
e 20 75
e 20 79
e 20 80
e 20 90
e 20 96
e 20 100
e 20 110
e 20 119
e 20 150
e 21 33
e 21 46
e 21 51
e 21 71
e 21 86
e 21 97
e 21 142
e 22 35
e 22 53
e 22 59
e 22 63
e 22 88
e 22 94
e 22 95
e 22 98
e 22 103
e 22 108
e 22 130
e 22 133
e 22 140
e 22 141
e 22 143
e 22 145
e 23 38
e 23 39
e 23 58
e 23 74
e 23 76
e 23 77
e 23 83
e 23 84
e 23 96
e 23 133
e 24 57
e 24 69
e 24 90
e 24 93
e 24 94
e 24 106
e 24 112
e 24 113
e 24 115
e 24 127
e 24 131
e 24 136
e 25 39
e 25 40
e 25 49
e 25 54
e 25 65
e 25 71
e 25 72
e 25 73
e 25 82
e 25 90
e 25 91
e 25 105
e 26 27
e 26 29
e 26 34
e 26 47
e 26 50
e 26 70
e 26 71
e 26 82
e 26 94
e 26 103
e 26 106
e 26 119
e 26 125
e 26 133
e 27 30
e 27 38
e 27 39
e 27 42
e 27 50
e 27 57
e 27 67
e 27 87
e 27 100
e 27 107
e 27 129
e 27 150
e 28 29
e 28 43
e 28 59
e 28 62
e 28 63
e 28 64
e 28 68
e 28 69
e 28 78
e 28 80
e 28 82
e 28 98
e 28 105
e 28 110
e 28 113
e 28 118
e 28 120
e 28 134
e 28 142
e 29 30
e 29 43
e 29 83
e 29 88
e 29 101
e 29 111
e 29 117
e 29 139
e 30 39
e 30 49
e 30 81
e 30 82
e 30 86
e 30 89
e 30 90
e 30 108
e 30 109
e 30 126
e 30 135
e 30 140
e 31 38
e 31 44
e 31 54
e 31 104
e 31 106
e 31 121
e 31 136
e 31 141
e 31 148
e 32 51
e 32 53
e 32 60
e 32 62
e 32 63
e 32 67
e 32 73
e 32 74
e 32 82
e 32 85
e 32 89
e 32 94
e 32 104
e 32 140
e 32 150
e 33 52
e 33 60
e 33 61
e 33 83
e 33 114
e 33 124
e 33 146
e 34 39
e 34 47
e 34 48
e 34 53
e 34 59
e 34 84
e 34 97
e 34 99
e 34 121
e 34 130
e 34 131
e 34 143
e 34 146
e 34 149
e 35 37
e 35 39
e 35 41
e 35 59
e 35 60
e 35 88
e 35 96
e 35 107
e 35 129
e 35 130
e 35 131
e 35 137
e 35 138
e 35 142
e 36 52
e 36 58
e 36 67
e 36 68
e 36 72
e 36 76
e 36 86
e 36 88
e 36 103
e 36 106
e 36 115
e 36 119
e 36 125
e 36 132
e 36 140
e 36 143
e 36 147
e 37 72
e 37 81
e 37 82
e 37 102
e 37 107
e 37 126
e 37 131
e 37 144
e 38 39
e 38 55
e 38 76
e 38 85
e 38 104
e 38 113
e 38 118
e 38 134
e 38 141
e 38 149
e 39 41
e 39 52
e 39 62
e 39 69
e 39 71
e 39 77
e 39 132
e 39 138
e 39 139
e 39 144
e 39 145
e 40 50
e 40 52
e 40 57
e 40 62
e 40 77
e 40 90
e 40 93
e 40 98
e 40 102
e 40 109
e 40 114
e 40 119
e 40 150
e 41 54
e 41 64
e 41 68
e 41 79
e 41 112
e 41 136
e 42 46
e 42 65
e 42 77
e 42 79
e 42 110
e 42 120
e 42 133
e 42 139
e 42 145
e 42 150
e 43 44
e 43 59
e 43 76
e 43 83
e 43 101
e 43 120
e 43 130
e 43 131
e 44 46
e 44 49
e 44 52
e 44 84
e 44 85
e 44 108
e 44 115
e 44 120
e 44 139
e 44 141
e 44 147
e 45 61
e 45 62
e 45 65
e 45 76
e 45 80
e 45 87
e 45 88
e 45 97
e 45 103
e 45 122
e 45 128
e 45 129
e 45 137
e 45 140
e 45 142
e 46 72
e 46 79
e 46 84
e 46 93
e 46 94
e 46 103
e 46 113
e 46 119
e 46 142
e 47 58
e 47 64
e 47 68
e 47 69
e 47 72
e 47 75
e 47 89
e 47 104
e 47 108
e 47 113
e 47 115
e 47 116
e 47 122
e 47 130
e 48 50
e 48 64
e 48 67
e 48 78
e 48 88
e 48 102
e 48 108
e 48 110
e 48 129
e 48 144
e 48 147
e 49 53
e 49 68
e 49 71
e 49 73
e 49 85
e 49 87
e 49 101
e 49 109
e 49 111
e 49 115
e 49 122
e 49 126
e 49 129
e 49 132
e 49 141
e 49 144
e 50 69
e 50 82
e 50 113
e 50 119
e 50 126
e 50 136
e 50 140
e 51 63
e 51 69
e 51 82
e 51 90
e 51 92
e 51 93
e 51 95
e 51 97
e 51 101
e 51 116
e 51 121
e 51 146
e 52 56
e 52 72
e 52 79
e 52 86
e 52 103
e 52 110
e 52 113
e 52 126
e 52 129
e 52 130
e 52 132
e 52 140
e 53 57
e 53 61
e 53 63
e 53 76
e 53 77
e 53 80
e 53 113
e 53 126
e 53 131
e 54 62
e 54 65
e 54 69
e 54 73
e 54 78
e 54 106
e 54 108
e 54 138
e 54 144
e 55 56
e 55 60
e 55 61
e 55 74
e 55 78
e 55 86
e 55 132
e 55 146
e 56 61
e 56 89
e 56 113
e 56 127
e 56 143
e 57 61
e 57 69
e 57 85
e 57 105
e 57 106
e 57 111
e 57 112
e 57 121
e 57 131
e 57 136
e 57 142
e 57 145
e 57 150
e 58 81
e 58 100
e 58 118
e 58 122
e 58 135
e 58 139
e 58 148
e 59 70
e 59 73
e 59 100
e 59 106
e 59 120
e 59 128
e 59 135
e 59 138
e 59 144
e 59 149
e 60 61
e 60 62
e 60 66
e 60 70
e 60 75
e 60 77
e 60 86
e 60 118
e 60 125
e 60 127
e 60 132
e 60 134
e 60 141
e 61 64
e 61 66
e 61 87
e 61 94
e 61 96
e 61 108
e 61 126
e 61 138
e 61 142
e 61 144
e 61 150
e 62 63
e 62 77
e 62 80
e 62 91
e 62 95
e 62 101
e 62 109
e 62 128
e 62 130
e 62 132
e 62 137
e 63 74
e 63 94
e 63 137
e 63 147
e 63 149
e 64 65
e 64 72
e 64 73
e 64 78
e 64 88
e 64 102
e 64 116
e 64 127
e 64 136
e 64 148
e 65 78
e 65 79
e 65 96
e 65 102
e 65 104
e 65 138
e 65 139
e 65 144
e 65 145
e 65 147
e 66 72
e 66 74
e 66 77
e 66 81
e 66 82
e 66 105
e 66 134
e 67 95
e 67 98
e 67 99
e 67 141
e 68 76
e 68 88
e 68 97
e 68 99
e 68 106
e 68 108
e 68 112
e 68 125
e 68 136
e 68 137
e 68 139
e 69 77
e 69 105
e 69 118
e 69 133
e 69 142
e 69 145
e 70 86
e 70 88
e 70 90
e 70 101
e 70 103
e 70 113
e 70 137
e 71 108
e 71 114
e 71 133
e 71 136
e 72 74
e 72 76
e 72 91
e 72 99
e 72 109
e 72 112
e 72 113
e 72 143
e 72 144
e 73 79
e 73 81
e 73 84
e 73 90
e 73 101
e 73 104
e 74 87
e 74 98
e 74 99
e 74 116
e 74 121
e 74 129
e 74 145
e 74 149
e 75 82
e 75 84
e 75 90
e 75 96
e 75 132
e 76 77
e 76 88
e 76 94
e 76 106
e 76 112
e 76 124
e 76 141
e 77 87
e 77 88
e 77 96
e 77 103
e 77 120
e 77 127
e 77 144
e 77 148
e 78 83
e 78 84
e 78 104
e 78 110
e 78 115
e 78 135
e 79 83
e 79 92
e 79 95
e 79 96
e 79 113
e 79 119
e 79 120
e 79 126
e 79 128
e 79 129
e 79 132
e 79 140
e 80 101
e 80 109
e 80 115
e 80 122
e 80 133
e 80 137
e 80 139
e 80 149
e 81 83
e 81 88
e 81 93
e 81 100
e 81 113
e 81 129
e 82 97
e 82 104
e 82 114
e 82 128
e 82 133
e 82 142
e 82 145
e 83 86
e 83 107
e 83 120
e 83 132
e 83 137
e 83 142
e 83 150
e 84 110
e 84 111
e 84 127
e 84 130
e 84 133
e 84 143
e 84 144
e 85 87
e 85 92
e 85 107
e 85 108
e 85 120
e 85 121
e 85 128
e 85 129
e 85 142
e 86 95
e 86 106
e 86 124
e 86 129
e 86 143
e 86 145
e 87 129
e 87 132
e 87 133
e 88 93
e 88 110
e 88 113
e 88 116
e 88 135
e 88 139
e 88 140
e 88 144
e 89 101
e 89 109
e 89 112
e 89 126
e 89 128
e 89 132
e 89 135
e 89 137
e 89 142
e 89 143
e 89 145
e 89 149
e 90 93
e 90 94
e 90 95
e 90 136
e 90 145
e 90 150
e 91 117
e 91 123
e 91 126
e 91 136
e 91 142
e 92 100
e 92 108
e 92 127
e 92 135
e 92 138
e 92 146
e 93 95
e 93 104
e 93 111
e 93 123
e 93 132
e 93 146
e 94 95
e 94 99
e 94 120
e 94 129
e 94 139
e 94 141
e 94 142
e 94 144
e 95 116
e 95 120
e 95 121
e 95 122
e 95 137
e 95 143
e 95 146
e 96 101
e 96 105
e 96 108
e 96 110
e 96 119
e 96 123
e 97 111
e 97 117
e 97 142
e 97 143
e 97 147
e 98 103
e 98 106
e 98 111
e 98 112
e 98 128
e 98 137
e 98 138
e 98 141
e 98 142
e 99 114
e 99 129
e 99 133
e 99 135
e 100 112
e 100 120
e 100 123
e 100 143
e 100 150
e 101 117
e 101 127
e 101 129
e 101 134
e 101 148
e 102 105
e 102 109
e 102 111
e 102 127
e 102 146
e 103 109
e 103 127
e 103 148
e 104 112
e 104 114
e 104 144
e 104 149
e 105 115
e 105 132
e 105 148
e 106 116
e 106 129
e 106 142
e 106 148
e 107 126
e 107 129
e 107 134
e 107 146
e 108 114
e 108 124
e 108 131
e 108 139
e 109 114
e 109 120
e 109 139
e 109 145
e 109 148
e 110 115
e 110 117
e 110 130
e 110 132
e 110 144
e 110 149
e 111 112
e 111 116
e 111 133
e 111 137
e 111 145
e 112 116
e 112 119
e 112 123
e 112 135
e 114 127
e 114 135
e 114 136
e 114 145
e 116 121
e 116 127
e 116 143
e 117 130
e 117 131
e 117 132
e 117 141
e 117 143
e 117 150
e 118 131
e 119 124
e 119 127
e 119 134
e 119 140
e 119 141
e 119 142
e 120 123
e 120 125
e 120 134
e 120 149
e 121 132
e 121 134
e 122 125
e 122 148
e 122 149
e 123 127
e 123 132
e 123 149
e 124 127
e 124 143
e 125 139
e 125 146
e 125 147
e 125 148
e 126 139
e 126 145
e 127 128
e 127 138
e 127 142
e 127 149
e 128 145
e 130 132
e 130 136
e 130 139
e 130 145
e 131 132
e 131 137
e 131 140
e 131 146
e 131 148
e 132 148
e 133 139
e 133 146
e 134 135
e 134 136
e 134 141
e 135 141
e 136 141
e 137 150
e 139 146
e 140 145
e 143 146
e 143 149
e 144 145
e 145 148
